NAME: set2_case1_5_25
COMMENT: 840
VEHICLE: 37
TIME: 600
DIMENSION: 20
CAPACITY: 10
DELIVERY_SECTION
0 0 0
1 1 2.5
2 1 2.5
3 1 2.5
4 1 2.5
5 2 2.5
6 2 2.5
7 2 2.5
8 2 2.5
9 2 1
10 3 2.5
11 3 2.5
12 3 2.5
13 3 2.5
14 3 1
15 3 1
16 4 2.5
17 4 2.5
18 4 2.5
19 4 2.5
20 4 2.5
21 4 0.5
22 5 2.5
23 5 2.5
24 5 2.5
25 5 2.5
26 5 2.5
27 5 1
28 5 0.5
29 6 2.5
30 6 2.5
31 6 2.5
32 6 2.5
33 6 2.5
34 6 2.5
35 7 2.5
36 7 2.5
37 7 2.5
38 7 2.5
39 7 2.5
40 7 2.5
41 7 1
42 8 2.5
43 8 2.5
44 8 2.5
45 8 2.5
46 8 2.5
47 8 2.5
48 8 1
49 8 1
50 9 2.5
51 9 2.5
52 9 2.5
53 9 2.5
54 9 2.5
55 9 2.5
56 9 2.5
57 9 0.5
58 10 2.5
59 10 2.5
60 10 2.5
61 10 2.5
62 10 2.5
63 10 2.5
64 10 2.5
65 10 1
66 10 0.5
67 11 2.5
68 11 2.5
69 11 2.5
70 11 2.5
71 11 2.5
72 11 2.5
73 11 2.5
74 11 2.5
75 12 2.5
76 12 2.5
77 12 2.5
78 12 2.5
79 12 2.5
80 12 2.5
81 12 2.5
82 12 2.5
83 12 1
84 13 2.5
85 13 2.5
86 13 2.5
87 13 2.5
88 13 2.5
89 13 2.5
90 13 2.5
91 13 2.5
92 13 1
93 13 1
94 14 2.5
95 14 2.5
96 14 2.5
97 14 2.5
98 14 2.5
99 14 2.5
100 14 2.5
101 14 2.5
102 14 2.5
103 14 0.5
104 15 2.5
105 15 2.5
106 15 2.5
107 15 2.5
108 15 2.5
109 15 2.5
110 15 2.5
111 15 2.5
112 15 2.5
113 15 1
114 15 0.5
115 16 2.5
116 16 2.5
117 16 2.5
118 16 2.5
119 16 2.5
120 16 2.5
121 16 2.5
122 16 2.5
123 16 2.5
124 16 2.5
125 17 2.5
126 17 2.5
127 17 2.5
128 17 2.5
129 17 2.5
130 17 2.5
131 17 2.5
132 17 2.5
133 17 2.5
134 17 2.5
135 17 1
136 18 2.5
137 18 2.5
138 18 2.5
139 18 2.5
140 18 2.5
141 18 2.5
142 18 2.5
143 18 2.5
144 18 2.5
145 18 2.5
146 18 1
147 18 1
148 19 2.5
149 19 2.5
150 19 2.5
151 19 2.5
152 19 2.5
153 19 2.5
154 19 2.5
155 19 2.5
156 19 2.5
157 19 2.5
158 19 2.5
159 19 0.5
PICKUP_SECTION
0 0 0
1 1 2.5
2 1 2.5
3 1 2.5
4 1 2.5
5 2 2.5
6 2 2.5
7 2 2.5
8 2 2.5
9 3 2.5
10 3 2.5
11 3 2.5
12 3 2.5
13 4 2.5
14 4 2.5
15 4 2.5
16 4 2.5
17 5 2.5
18 5 2.5
19 5 2.5
20 5 2.5
21 6 2.5
22 6 2.5
23 6 2.5
24 6 2.5
25 7 2.5
26 7 2.5
27 7 2.5
28 7 2.5
29 8 2.5
30 8 2.5
31 8 2.5
32 8 2.5
33 9 2.5
34 9 2.5
35 9 2.5
36 9 2.5
37 10 2.5
38 10 2.5
39 10 2.5
40 10 2.5
41 11 2.5
42 11 2.5
43 11 2.5
44 11 2.5
45 12 2.5
46 12 2.5
47 12 2.5
48 12 2.5
49 13 2.5
50 13 2.5
51 13 2.5
52 13 2.5
53 14 2.5
54 14 2.5
55 14 2.5
56 14 2.5
57 15 2.5
58 15 2.5
59 15 2.5
60 15 2.5
61 16 2.5
62 16 2.5
63 16 2.5
64 16 2.5
65 17 2.5
66 17 2.5
67 17 2.5
68 17 2.5
69 18 2.5
70 18 2.5
71 18 2.5
72 18 2.5
73 19 2.5
74 19 2.5
75 19 2.5
76 19 2.5
NODE_SECTION
DISTANCE_SECTION
10 10 10 10 10 10 10 10 10 10 10 10 10 10 10 10 10 10 10 
10 10 10 10 10 10 10 10 10 10 10 10 10 10 10 10 10 10 
10 10 10 10 10 10 10 10 10 10 10 10 10 10 10 10 10 
10 10 10 10 10 10 10 10 10 10 10 10 10 10 10 10 
10 10 10 10 10 10 10 10 10 10 10 10 10 10 10 
10 10 10 10 10 10 10 10 10 10 10 10 10 10 
10 10 10 10 10 10 10 10 10 10 10 10 10 
10 10 10 10 10 10 10 10 10 10 10 10 
10 10 10 10 10 10 10 10 10 10 10 
10 10 10 10 10 10 10 10 10 10 
10 10 10 10 10 10 10 10 10 
10 10 10 10 10 10 10 10 
10 10 10 10 10 10 10 
10 10 10 10 10 10 
10 10 10 10 10 
10 10 10 10 
10 10 10 
10 10 
10 
DEPOT_SECTION
0
EOF